\ Model Unbounded_Knapsack
\ LP format - for model browsing. Use MPS format to capture full model detail.
\ Signature: 0x45e348fcfcc2b312
Maximize
  10 x[0] + 40 x[1] + 30 x[2] + 50 x[3] + 35 x[4] + 6 x[5] + 33 x[6]
   + 57 x[7] + 42 x[8] + 24 x[9] + 61 x[10] + 5 x[11] + 52 x[12] + 16 x[13]
   + 7 x[14] + 46 x[15] + 78 x[16] + 36 x[17] + 69 x[18] + 41 x[19]
   + 33 x[20] + 41 x[21] + 12 x[22] + 73 x[23] + 40 x[24] + 34 x[25]
   + 35 x[26] + 11 x[27] + 66 x[28] + 42 x[29] + 61 x[30] + 24 x[31]
   + 38 x[32] + 37 x[33] + 45 x[34] + 42 x[35] + 23 x[36] + 8 x[37]
   + 51 x[38] + 59 x[39] + 6 x[40] + 71 x[41] + 66 x[42] + 18 x[43]
   + 31 x[44] + 15 x[45] + 42 x[46] + 69 x[47] + 21 x[48] + 5 x[49]
   + 82 x[50] + 24 x[51] + 44 x[52] + 49 x[53] + 67 x[54] + 40 x[55]
   + 11 x[56] + 32 x[57] + 44 x[58] + 33 x[59] + 5 x[60] + 24 x[61]
   + 10 x[62] + 37 x[63] + 52 x[64] + 46 x[65] + 52 x[66] + 30 x[67]
   + 69 x[68] + 25 x[69] + 32 x[70] + 76 x[71] + 31 x[72] + 5 x[73]
   + 23 x[74] + 69 x[75] + 12 x[76] + 28 x[77] + 13 x[78] + 51 x[79]
   + 44 x[80] + 22 x[81] + 26 x[82] + 25 x[83] + 47 x[84] + 72 x[85]
   + 23 x[86] + 9 x[87] + 55 x[88] + 62 x[89] + 56 x[90] + 9 x[91]
   + 32 x[92] + 51 x[93] + 71 x[94] + 20 x[95] + 41 x[96] + 73 x[97]
   + 32 x[98] + 46 x[99] + 20 x[100] + 21 x[101] + 58 x[102] + 49 x[103]
   + 12 x[104] + 53 x[105] + 12 x[106] + 65 x[107] + 8 x[108] + 50 x[109]
   + 42 x[110] + 41 x[111] + 54 x[112] + 40 x[113] + 36 x[114] + 13 x[115]
   + 56 x[116] + 28 x[117] + 41 x[118] + 33 x[119] + 28 x[120] + 9 x[121]
   + 10 x[122] + 16 x[123] + 10 x[124] + 23 x[125] + 29 x[126] + 30 x[127]
   + 24 x[128] + 38 x[129] + 42 x[130] + 7 x[131] + 48 x[132] + 34 x[133]
   + 46 x[134] + 50 x[135] + 50 x[136] + 4 x[137] + 29 x[138] + 41 x[139]
Subject To
 capacity: 2 x[0] + 5 x[1] + 4 x[2] + 8 x[3] + 7 x[4] + x[5] + 8 x[6]
   + 7 x[7] + 5 x[8] + 5 x[9] + 9 x[10] + x[11] + 7 x[12] + 3 x[13] + x[14]
   + 6 x[15] + 10 x[16] + 8 x[17] + 8 x[18] + 8 x[19] + 8 x[20] + 6 x[21]
   + 2 x[22] + 9 x[23] + 5 x[24] + 6 x[25] + 4 x[26] + 2 x[27] + 10 x[28]
   + 8 x[29] + 7 x[30] + 5 x[31] + 9 x[32] + 6 x[33] + 5 x[34] + 5 x[35]
   + 3 x[36] + x[37] + 6 x[38] + 9 x[39] + x[40] + 9 x[41] + 9 x[42]
   + 3 x[43] + 7 x[44] + 2 x[45] + 8 x[46] + 8 x[47] + 4 x[48] + x[49]
   + 10 x[50] + 5 x[51] + 9 x[52] + 7 x[53] + 8 x[54] + 8 x[55] + 2 x[56]
   + 4 x[57] + 5 x[58] + 5 x[59] + x[60] + 6 x[61] + 2 x[62] + 8 x[63]
   + 7 x[64] + 10 x[65] + 8 x[66] + 4 x[67] + 10 x[68] + 5 x[69] + 4 x[70]
   + 10 x[71] + 4 x[72] + x[73] + 5 x[74] + 8 x[75] + 2 x[76] + 5 x[77]
   + 2 x[78] + 7 x[79] + 5 x[80] + 4 x[81] + 3 x[82] + 6 x[83] + 7 x[84]
   + 10 x[85] + 5 x[86] + 2 x[87] + 9 x[88] + 7 x[89] + 8 x[90] + x[91]
   + 4 x[92] + 8 x[93] + 9 x[94] + 5 x[95] + 9 x[96] + 9 x[97] + 4 x[98]
   + 9 x[99] + 3 x[100] + 3 x[101] + 7 x[102] + 7 x[103] + 2 x[104]
   + 9 x[105] + 2 x[106] + 9 x[107] + x[108] + 8 x[109] + 8 x[110]
   + 8 x[111] + 7 x[112] + 5 x[113] + 8 x[114] + 3 x[115] + 8 x[116]
   + 6 x[117] + 5 x[118] + 6 x[119] + 6 x[120] + x[121] + 2 x[122]
   + 3 x[123] + 2 x[124] + 5 x[125] + 7 x[126] + 7 x[127] + 5 x[128]
   + 9 x[129] + 6 x[130] + x[131] + 8 x[132] + 6 x[133] + 7 x[134]
   + 6 x[135] + 6 x[136] + x[137] + 6 x[138] + 8 x[139] <= 15
Bounds
Generals
 x[0] x[1] x[2] x[3] x[4] x[5] x[6] x[7] x[8] x[9] x[10] x[11] x[12] x[13]
 x[14] x[15] x[16] x[17] x[18] x[19] x[20] x[21] x[22] x[23] x[24] x[25]
 x[26] x[27] x[28] x[29] x[30] x[31] x[32] x[33] x[34] x[35] x[36] x[37]
 x[38] x[39] x[40] x[41] x[42] x[43] x[44] x[45] x[46] x[47] x[48] x[49]
 x[50] x[51] x[52] x[53] x[54] x[55] x[56] x[57] x[58] x[59] x[60] x[61]
 x[62] x[63] x[64] x[65] x[66] x[67] x[68] x[69] x[70] x[71] x[72] x[73]
 x[74] x[75] x[76] x[77] x[78] x[79] x[80] x[81] x[82] x[83] x[84] x[85]
 x[86] x[87] x[88] x[89] x[90] x[91] x[92] x[93] x[94] x[95] x[96] x[97]
 x[98] x[99] x[100] x[101] x[102] x[103] x[104] x[105] x[106] x[107] x[108]
 x[109] x[110] x[111] x[112] x[113] x[114] x[115] x[116] x[117] x[118]
 x[119] x[120] x[121] x[122] x[123] x[124] x[125] x[126] x[127] x[128]
 x[129] x[130] x[131] x[132] x[133] x[134] x[135] x[136] x[137] x[138]
 x[139]
End
